(set-logic QF_NRA)
(set-info :source |Benchmarks generated from hycomp (https://es-static.fbk.eu/tools/hycomp/). BMC instances of non-linear hybrid automata taken from: Alessandro Cimatti, Sergio Mover, Stefano Tonetta, A quantifier-free SMT encoding of non-linear hybrid automata, FMCAD 2012 and Alessandro Cimatti, Sergio Mover, Stefano Tonetta, Quantier-free encoding of invariants for Hybrid Systems, Formal Methods in System Design. This instance solves a BMC problem of depth 0 and uses the quantifier free encoding with lemmas encoding. Contacts: Sergio Mover (mover@fbk.eu), Stefano Tonetta (tonettas@fbk.eu), Alessandro Cimatti (cimatti@fbk.eu).|)
(set-info :smt-lib-version 2.0)
(set-info :category "industrial")
(set-info :status unsat)
;; MathSAT API call trace
;; generated on Mon Mar 19 10:49:08 2012
(declare-fun b.x__AT0 () Real)
(declare-fun b.speed_y__AT0 () Real)
(declare-fun b.event_is_timed__AT0 () Bool)
(declare-fun b.speed_x__AT0 () Real)
(declare-fun b.time__AT0 () Real)
(declare-fun b.y__AT0 () Real)
(declare-fun b.counter.0__AT0 () Bool)
(declare-fun b.counter.1__AT0 () Bool)
(declare-fun b.counter.2__AT0 () Bool)
(declare-fun b.delta__AT0 () Real)
(declare-fun b.EVENT.0__AT0 () Bool)
(declare-fun b.EVENT.1__AT0 () Bool)
(declare-fun b.speed_loss__AT0 () Real)
(declare-fun b.counter.3__AT0 () Bool)
(assert (let ((.def_73 (* (- 1.0) b.speed_x__AT0)))
(let ((.def_74 (* b.speed_x__AT0 .def_73)))
(let ((.def_75 (* (- 1.0) .def_74)))
(let ((.def_106 (* 2.0 .def_75)))
(let ((.def_168 (* (- 1.0) .def_106)))
(let ((.def_169 (* b.delta__AT0 .def_168)))
(let ((.def_170 (* (- 5.0) .def_169)))
(let ((.def_55 (* (- 1.0) b.x__AT0)))
(let ((.def_88 (* b.speed_x__AT0 .def_55)))
(let ((.def_113 (* (- 5.0) .def_88)))
(let ((.def_175 (+ .def_113 .def_170)))
(let ((.def_83 (* b.x__AT0 .def_73)))
(let ((.def_111 (* (- 5.0) .def_83)))
(let ((.def_176 (+ .def_111 .def_175)))
(let ((.def_115 (* (- 49.0) b.delta__AT0)))
(let ((.def_177 (+ .def_115 .def_176)))
(let ((.def_117 (* 5.0 b.speed_y__AT0)))
(let ((.def_178 (+ .def_117 .def_177)))
(let ((.def_181 (<= 0.0 .def_178)))
(let ((.def_188 (not .def_181)))
(let ((.def_89 (* (- 1.0) .def_88)))
(let ((.def_84 (* (- 1.0) .def_83)))
(let ((.def_125 (+ .def_84 .def_89)))
(let ((.def_126 (+ b.speed_y__AT0 .def_125)))
(let ((.def_127 (<= 0.0 .def_126)))
(let ((.def_189 (or .def_127 .def_188)))
(let ((.def_179 (<= .def_178 0.0 )))
(let ((.def_141 (<= .def_126 0.0 )))
(let ((.def_142 (not .def_141)))
(let ((.def_187 (or .def_142 .def_179)))
(let ((.def_190 (and .def_187 .def_189)))
(let ((.def_159 (<= .def_74 (- (/ 49 10)))))
(let ((.def_191 (or .def_159 .def_190)))
(let ((.def_183 (not .def_179)))
(let ((.def_184 (or .def_141 .def_183)))
(let ((.def_128 (not .def_127)))
(let ((.def_182 (or .def_128 .def_181)))
(let ((.def_185 (and .def_182 .def_184)))
(let ((.def_164 (<= (- (/ 49 10)) .def_74)))
(let ((.def_186 (or .def_164 .def_185)))
(let ((.def_192 (and .def_186 .def_191)))
(let ((.def_180 (and .def_141 .def_179)))
(let ((.def_193 (and .def_180 .def_192)))
(let ((.def_107 (* b.delta__AT0 .def_106)))
(let ((.def_109 (* 5.0 .def_107)))
(let ((.def_119 (+ .def_113 .def_109)))
(let ((.def_120 (+ .def_111 .def_119)))
(let ((.def_121 (+ .def_115 .def_120)))
(let ((.def_122 (+ .def_117 .def_121)))
(let ((.def_139 (<= .def_122 0.0 )))
(let ((.def_140 (not .def_139)))
(let ((.def_162 (or .def_140 .def_141)))
(let ((.def_123 (<= 0.0 .def_122)))
(let ((.def_161 (or .def_123 .def_128)))
(let ((.def_163 (and .def_161 .def_162)))
(let ((.def_165 (or .def_163 .def_164)))
(let ((.def_124 (not .def_123)))
(let ((.def_155 (or .def_124 .def_127)))
(let ((.def_154 (or .def_139 .def_142)))
(let ((.def_156 (and .def_154 .def_155)))
(let ((.def_160 (or .def_156 .def_159)))
(let ((.def_166 (and .def_160 .def_165)))
(let ((.def_153 (and .def_123 .def_127)))
(let ((.def_167 (and .def_153 .def_166)))
(let ((.def_194 (or .def_167 .def_193)))
(let ((.def_90 (* b.delta__AT0 .def_89)))
(let ((.def_91 (* 10.0 .def_90)))
(let ((.def_85 (* b.delta__AT0 .def_84)))
(let ((.def_86 (* 10.0 .def_85)))
(let ((.def_98 (+ .def_86 .def_91)))
(let ((.def_72 (* b.delta__AT0 b.delta__AT0)))
(let ((.def_76 (* .def_72 .def_75)))
(let ((.def_77 (* 10.0 .def_76)))
(let ((.def_99 (+ .def_77 .def_98)))
(let ((.def_81 (* (- 49.0) .def_72)))
(let ((.def_100 (+ .def_81 .def_99)))
(let ((.def_70 (* b.speed_y__AT0 b.delta__AT0)))
(let ((.def_71 (* 10.0 .def_70)))
(let ((.def_101 (+ .def_71 .def_100)))
(let ((.def_56 (* b.x__AT0 .def_55)))
(let ((.def_94 (* (- 10.0) .def_56)))
(let ((.def_102 (+ .def_94 .def_101)))
(let ((.def_96 (* 10.0 b.y__AT0)))
(let ((.def_103 (+ .def_96 .def_102)))
(let ((.def_133 (<= .def_103 0.0 )))
(let ((.def_147 (not .def_133)))
(let ((.def_131 (<= b.y__AT0 .def_56)))
(let ((.def_148 (or .def_131 .def_147)))
(let ((.def_57 (<= .def_56 b.y__AT0)))
(let ((.def_145 (not .def_57)))
(let ((.def_104 (<= 0.0 .def_103)))
(let ((.def_146 (or .def_104 .def_145)))
(let ((.def_149 (and .def_146 .def_148)))
(let ((.def_143 (or .def_140 .def_142)))
(let ((.def_144 (not .def_143)))
(let ((.def_150 (or .def_144 .def_149)))
(let ((.def_135 (not .def_104)))
(let ((.def_136 (or .def_57 .def_135)))
(let ((.def_132 (not .def_131)))
(let ((.def_134 (or .def_132 .def_133)))
(let ((.def_137 (and .def_134 .def_136)))
(let ((.def_129 (or .def_124 .def_128)))
(let ((.def_130 (not .def_129)))
(let ((.def_138 (or .def_130 .def_137)))
(let ((.def_151 (and .def_138 .def_150)))
(let ((.def_105 (and .def_57 .def_104)))
(let ((.def_152 (and .def_105 .def_151)))
(let ((.def_195 (and .def_152 .def_194)))
(let ((.def_63 (<= b.speed_loss__AT0 (/ 1 2))))
(let ((.def_60 (<= (/ 1 10) b.speed_loss__AT0)))
(let ((.def_64 (and .def_60 .def_63)))
(let ((.def_196 (and .def_64 .def_195)))
(let ((.def_65 (and .def_57 .def_64)))
(let ((.def_51 (not b.EVENT.0__AT0)))
(let ((.def_49 (not b.EVENT.1__AT0)))
(let ((.def_52 (or .def_49 .def_51)))
(let ((.def_9 (not b.counter.0__AT0)))
(let ((.def_6 (not b.counter.1__AT0)))
(let ((.def_42 (or .def_6 .def_9)))
(let ((.def_46 (or b.counter.3__AT0 .def_42)))
(let ((.def_43 (or b.counter.2__AT0 .def_42)))
(let ((.def_4 (not b.counter.2__AT0)))
(let ((.def_41 (or .def_4 .def_9)))
(let ((.def_44 (and .def_41 .def_43)))
(let ((.def_14 (not b.counter.3__AT0)))
(let ((.def_45 (or .def_14 .def_44)))
(let ((.def_47 (and .def_45 .def_46)))
(let ((.def_53 (and .def_47 .def_52)))
(let ((.def_66 (and .def_53 .def_65)))
(let ((.def_10 (and .def_6 .def_9)))
(let ((.def_38 (and .def_4 .def_10)))
(let ((.def_39 (and .def_14 .def_38)))
(let ((.def_36 (= b.speed_y__AT0 1.0 )))
(let ((.def_33 (= b.speed_x__AT0 1.0 )))
(let ((.def_29 (= b.y__AT0 10.0 )))
(let ((.def_25 (= b.x__AT0 0.0 )))
(let ((.def_21 (= b.time__AT0 0.0 )))
(let ((.def_23 (and .def_21 b.event_is_timed__AT0)))
(let ((.def_26 (and .def_23 .def_25)))
(let ((.def_30 (and .def_26 .def_29)))
(let ((.def_34 (and .def_30 .def_33)))
(let ((.def_37 (and .def_34 .def_36)))
(let ((.def_40 (and .def_37 .def_39)))
(let ((.def_67 (and .def_40 .def_66)))
(let ((.def_16 (or .def_10 b.counter.3__AT0)))
(let ((.def_11 (or b.counter.2__AT0 .def_10)))
(let ((.def_7 (or .def_4 .def_6)))
(let ((.def_12 (and .def_7 .def_11)))
(let ((.def_15 (or .def_12 .def_14)))
(let ((.def_17 (and .def_15 .def_16)))
(let ((.def_18 (not .def_17)))
(let ((.def_68 (and .def_18 .def_67)))
(let ((.def_197 (and .def_68 .def_196)))
.def_197))))))))))))))))))))))))))))))))))))))))))))))))))))))))))))))))))))))))))))))))))))))))))))))))))))))))))))))))))))))))))))))))))))))))))))))))))))))))))
(check-sat)
(exit)
